<?xml version="1.0" encoding="UTF-8"?><osil xmlns="os.optimizationservices.org" xmlns:xsi="http://www.w3.org/2001/XMLSchema-instance" xsi:schemaLocation="os.optimizationservices.org http://www.optimizationservices.org/schemas/2.0/OSiL.xsd"><instanceHeader><name>fac1</name></instanceHeader><instanceData><variables numberOfVariables="22"><var name="x1" ub="300"/><var name="x2" ub="300"/><var name="x3" ub="300"/><var name="x4" ub="300"/><var name="x5" ub="300"/><var name="x6" ub="300"/><var name="x7" ub="300"/><var name="x8" ub="300"/><var name="x9" ub="300"/><var name="x10" ub="300"/><var name="x11" ub="300"/><var name="x12" ub="300"/><var name="x13" ub="300"/><var name="x14" ub="300"/><var name="x15" ub="300"/><var name="x16" ub="300"/><var name="b17" type="B" ub="1"/><var name="b18" type="B" ub="1"/><var name="b19" type="B" ub="1"/><var name="b20" type="B" ub="1"/><var name="b21" type="B" ub="1"/><var name="b22" type="B" ub="1"/></variables><objectives><obj maxOrMin="min" name="defObj_objvar" numberOfObjCoef="2"><coef idx="20">2e3</coef><coef idx="21">2.5e3</coef></obj></objectives><constraints numberOfConstraints="18"><con name="e2" ub="100"/><con name="e3" ub="200"/><con name="e4" ub="1.5e2"/><con name="e5" ub="1.2e2"/><con name="e6" lb="0" ub="0"/><con name="e7" lb="0" ub="0"/><con name="e8" lb="0" ub="0"/><con name="e9" lb="0" ub="0"/><con name="e10" lb="0" ub="0"/><con name="e11" lb="0" ub="0"/><con name="e12" lb="0" ub="0"/><con name="e13" lb="0" ub="0"/><con name="e14" ub="0"/><con name="e15" ub="0"/><con name="e16" lb="0"/><con name="e17" lb="0"/><con name="e18" lb="1" ub="1"/><con name="e19" lb="1" ub="1"/></constraints><linearConstraintCoefficients numberOfValues="56"><start><el mult="5" incr="4">0</el><el mult="12" incr="3">19</el><el>54</el><el>56</el></start><colIdx><el mult="4" incr="2">0</el><el mult="4" incr="2">1</el><el mult="4" incr="2">8</el><el mult="4" incr="2">9</el><el mult="3" incr="8">0</el><el>1</el><el>9</el><el>16</el><el>2</el><el>10</el><el>17</el><el>3</el><el>11</el><el>17</el><el>4</el><el>12</el><el>18</el><el>5</el><el>13</el><el>18</el><el>6</el><el>14</el><el>19</el><el>7</el><el>15</el><el>19</el><el>16</el><el>17</el><el>20</el><el>18</el><el>19</el><el>21</el><el>16</el><el>17</el><el>20</el><el>18</el><el>19</el><el>21</el><el>16</el><el>18</el><el>17</el><el>19</el></colIdx><value><el mult="18">1</el><el>-1.2e2</el><el mult="2">1</el><el>-1.4e2</el><el mult="2">1</el><el>-1.3e2</el><el mult="2">1</el><el>-1.8e2</el><el mult="2">1</el><el>-1.2e2</el><el mult="2">1</el><el>-1.4e2</el><el mult="2">1</el><el>-1.3e2</el><el mult="2">1</el><el>-1.8e2</el><el>2.6e2</el><el>3.1e2</el><el>-2.5e3</el><el>2.6e2</el><el>3.1e2</el><el>-3.2e3</el><el>2.6e2</el><el>3.1e2</el><el>-50</el><el>2.6e2</el><el>3.1e2</el><el>-50</el><el mult="4">1</el></value></linearConstraintCoefficients><nonlinearExpressions numberOfNonlinearExpressions="1"><nl idx="-1"><sum><product><power><sum><variable idx="0"/><variable idx="1"/><variable idx="2"/><variable idx="3"/><variable idx="8"/><variable idx="9"/><variable idx="10"/><variable idx="11"/></sum><number value="2.5"/></power><number value="50"/></product><product><power><sum><variable idx="4"/><variable idx="5"/><variable idx="6"/><variable idx="7"/><variable idx="12"/><variable idx="13"/><variable idx="14"/><variable idx="15"/></sum><number value="2.5"/></power><number value="70"/></product><variable idx="0" coef="10"/><variable idx="1" coef="15"/><variable idx="2" coef="20"/><variable idx="3" coef="10"/><variable idx="4" coef="5"/><variable idx="5" coef="5"/><variable idx="6" coef="30"/><variable idx="7" coef="10"/><variable idx="8" coef="25"/><variable idx="9" coef="20"/><variable idx="10" coef="15"/><variable idx="11" coef="20"/><variable idx="12" coef="30"/><variable idx="13" coef="10"/><variable idx="14" coef="10"/><variable idx="15" coef="30"/></sum></nl></nonlinearExpressions></instanceData></osil>